301 5
10 10 10 10 10 

0 0 0 0 0 0 5 2 34 66 98 110 
0 0 0 0 0 0 3 3 4 32 
2 0 2 2 0 1 3 31 5 134 
8 0 6 4 0 6 2 31 5 
4 0 3 4 0 6 2 9 6 
9 0 3 6 0 3 2 13 7 
2 0 5 5 0 10 2 30 8 
8 0 4 3 0 7 2 20 10 
6 0 5 5 0 6 2 13 11 
8 0 4 6 0 3 1 11 
9 0 3 5 0 3 3 24 16 12 
3 0 4 5 0 8 2 21 14 
7 0 2 9 0 1 2 24 14 
2 0 4 2 0 3 1 15 
7 0 6 2 0 3 2 29 17 
8 0 7 5 0 1 2 29 18 
5 0 10 5 0 7 1 18 
10 0 5 3 0 6 3 27 23 19 
9 0 10 3 0 4 3 28 26 22 
5 0 4 9 0 7 3 27 26 22 
6 0 4 7 0 4 1 22 
6 0 6 4 0 8 1 25 
4 0 3 4 0 5 1 26 
5 0 5 3 0 3 1 29 
2 0 7 10 0 7 1 33 
4 0 5 3 0 5 1 33 
8 0 6 4 0 5 1 33 
10 0 4 6 0 8 1 33 
9 0 4 5 0 5 1 33 
8 0 4 9 0 6 1 33 
4 0 8 7 0 7 1 33 
1 0 7 5 0 2 1 33 
0 0 0 0 0 0 1 278 
0 0 0 0 0 0 3 35 36 45 
3 0 1 1 1 0 2 53 37 
7 0 5 4 5 0 2 53 37 
8 0 3 2 3 0 2 41 38 
8 0 3 4 10 0 2 44 39 
7 0 4 5 4 0 2 55 40 
2 0 8 4 6 0 2 51 42 
5 0 5 5 6 0 2 44 43 
7 0 5 7 4 0 1 43 
10 0 7 6 6 0 3 59 50 46 
5 0 4 5 3 0 2 59 46 
5 0 4 5 6 0 4 56 55 50 49 
10 0 5 5 4 0 2 56 47 
4 0 6 6 3 0 1 48 
4 0 5 5 3 0 1 49 
9 0 3 5 7 0 2 64 52 
5 0 3 3 5 0 2 64 52 
4 0 5 3 7 0 2 64 52 
3 0 7 8 4 0 3 63 58 54 
4 0 6 5 8 0 2 63 54 
3 0 6 5 7 0 3 62 61 57 
1 0 5 5 10 0 2 61 60 
9 0 7 2 6 0 1 57 
6 0 7 5 5 0 1 60 
5 0 6 4 3 0 1 61 
5 0 5 9 4 0 2 64 173 
6 0 2 3 1 0 1 65 
9 0 4 8 9 0 1 65 
7 0 6 8 3 0 1 65 
3 0 6 9 3 0 1 65 
10 0 7 4 4 0 1 65 
0 0 0 0 0 0 1 278 
0 0 0 0 0 0 3 67 68 96 
9 0 3 1 4 0 2 95 69 
3 0 3 9 3 0 2 95 69 
7 0 3 5 6 0 3 73 70 166 
3 0 4 5 4 0 2 77 71 
6 0 4 2 2 0 2 94 72 
7 0 4 7 4 0 2 85 74 
6 0 7 5 4 0 3 80 77 75 
7 0 3 8 4 0 2 80 75 
4 0 7 4 5 0 2 88 76 
6 0 3 3 6 0 2 84 78 
10 0 8 4 3 0 2 88 78 
2 0 7 6 5 0 1 79 
1 0 4 6 6 0 2 93 81 
7 0 10 4 4 0 4 93 92 87 83 
5 0 8 5 3 0 1 82 
4 0 5 8 3 0 3 92 87 83 
2 0 4 4 10 0 3 91 90 86 
3 0 4 5 7 0 1 86 
6 0 3 9 6 0 1 86 
10 0 5 3 5 0 1 89 
10 0 5 7 6 0 1 90 
4 0 4 5 4 0 1 93 
2 0 8 5 7 0 1 97 
5 0 4 2 1 0 1 97 
1 0 5 6 8 0 1 97 
2 0 6 4 3 0 1 97 
9 0 5 3 7 0 1 97 
7 0 7 3 5 0 1 97 
3 0 2 6 7 0 1 97 
5 0 5 6 8 0 1 97 
0 0 0 0 0 0 1 278 
0 0 0 0 0 0 4 99 100 104 205 
1 0 1 0 0 0 2 105 103 
6 0 5 0 0 0 1 101 
9 0 9 0 0 0 1 102 
6 0 4 0 0 0 2 108 106 
4 0 6 0 0 0 2 108 106 
10 0 5 0 0 0 2 108 106 
3 0 6 0 0 0 1 106 
4 0 3 0 0 0 1 107 
5 0 4 0 0 0 1 109 
9 0 7 0 0 0 1 109 
0 0 0 0 0 0 5 142 164 176 198 220 
0 0 0 0 0 0 6 111 136 137 138 139 140 
8 1 0 1 0 1 2 135 112 
1 5 0 7 0 2 3 134 133 113 
3 6 0 6 0 3 2 132 114 
2 4 0 2 0 5 2 131 115 
8 4 0 7 0 2 1 116 
10 6 0 8 0 5 1 117 
4 4 0 3 0 5 4 130 129 128 118 
3 5 0 5 0 6 1 119 
1 6 0 4 0 5 1 120 
7 8 0 3 0 7 1 121 
10 1 0 6 0 5 3 127 126 122 
6 7 0 6 0 4 2 123 172 
1 7 0 6 0 6 1 124 
7 5 0 4 0 10 1 125 
5 6 0 2 0 4 1 141 
8 6 0 3 0 5 1 141 
3 5 0 6 0 5 1 141 
2 2 0 3 0 7 1 141 
5 8 0 4 0 6 1 141 
4 5 0 6 0 2 1 141 
4 3 0 5 0 8 1 141 
6 5 0 6 0 6 1 141 
1 4 0 1 0 5 1 141 
5 7 0 7 0 5 1 141 
6 6 0 7 0 4 1 141 
5 3 0 9 0 7 1 141 
3 4 0 7 0 4 1 141 
7 6 0 7 0 5 1 141 
5 5 0 4 0 6 1 141 
10 6 0 5 0 5 1 141 
0 0 0 0 0 0 1 278 
0 0 0 0 0 0 4 143 144 149 150 
6 0 0 1 1 0 3 152 151 145 
3 0 0 3 4 0 5 157 155 152 151 147 
2 0 0 4 7 0 1 146 
1 0 0 5 4 0 3 157 155 147 
4 0 0 5 8 0 1 148 
2 0 0 8 5 0 2 154 153 
5 0 0 3 4 0 2 155 153 
7 0 0 7 5 0 1 151 
7 0 0 5 6 0 1 153 
1 0 0 6 5 0 1 154 
2 0 0 5 5 0 2 161 156 
2 0 0 5 5 0 2 161 156 
4 0 0 7 4 0 2 161 156 
5 0 0 4 5 0 2 162 158 
1 0 0 5 6 0 2 161 159 
9 0 0 7 5 0 2 159 223 
2 0 0 2 5 0 1 160 
2 0 0 7 5 0 1 163 
1 0 0 4 5 0 1 163 
8 0 0 7 6 0 1 163 
0 0 0 0 0 0 1 278 
0 0 0 0 0 0 2 165 168 
7 1 0 0 0 0 3 170 167 166 
3 8 0 0 0 0 3 171 169 233 
8 4 0 0 0 0 2 172 171 
4 5 0 0 0 0 2 172 171 
7 4 0 0 0 0 2 174 172 
2 5 0 0 0 0 2 174 172 
10 7 0 0 0 0 2 174 173 
10 6 0 0 0 0 1 173 
5 5 0 0 0 0 1 175 
3 5 0 0 0 0 1 175 
0 0 0 0 0 0 3 242 254 266 
0 0 0 0 0 0 1 177 
1 0 2 0 4 0 2 181 178 
10 0 6 0 6 0 1 179 
8 0 4 0 2 0 3 188 180 252 
6 0 10 0 6 0 2 196 182 
10 0 6 0 2 0 5 196 195 194 187 183 
9 0 3 0 5 0 4 195 194 187 183 
5 0 4 0 10 0 3 193 191 184 
1 0 6 0 9 0 2 192 185 
6 0 2 0 7 0 2 190 186 
5 0 6 0 2 0 1 189 
4 0 4 0 7 0 1 189 
8 0 6 0 3 0 1 191 
2 0 2 0 4 0 1 197 
9 0 6 0 6 0 1 197 
3 0 4 0 6 0 1 197 
6 0 4 0 5 0 1 197 
2 0 7 0 4 0 1 197 
4 0 8 0 5 0 1 197 
6 0 6 0 4 0 1 197 
8 0 4 0 3 0 1 197 
0 0 0 0 0 0 1 278 
0 0 0 0 0 0 2 199 201 
4 1 0 0 0 1 2 204 200 
2 2 0 0 0 4 1 202 
6 4 0 0 0 6 1 202 
1 7 0 0 0 5 3 205 203 275 
6 8 0 0 0 4 4 210 209 208 206 
10 4 0 0 0 3 3 209 207 205 
7 3 0 0 0 6 3 211 210 208 
5 3 0 0 0 5 2 211 207 
10 5 0 0 0 4 3 218 216 212 
8 7 0 0 0 4 3 217 216 212 
9 7 0 0 0 6 3 217 216 212 
7 6 0 0 0 4 3 218 216 213 
6 6 0 0 0 8 3 217 216 215 
10 4 0 0 0 4 1 213 
5 5 0 0 0 7 1 214 
6 6 0 0 0 9 1 215 
3 5 0 0 0 5 1 219 
2 7 0 0 0 6 1 219 
5 5 0 0 0 8 1 219 
2 5 0 0 0 1 1 219 
0 0 0 0 0 0 1 278 
0 0 0 0 0 0 3 221 223 227 
9 0 1 0 2 0 1 222 
7 0 7 0 4 0 3 235 234 224 
1 0 4 0 8 0 3 235 234 224 
10 0 5 0 4 0 4 240 239 233 225 
5 0 7 0 5 0 2 232 226 
3 0 5 0 6 0 2 237 228 
7 0 1 0 2 0 2 238 230 
7 0 5 0 5 0 1 229 
1 0 3 0 4 0 1 230 
1 0 7 0 5 0 1 231 
5 0 8 0 4 0 1 236 
7 0 3 0 9 0 1 238 
7 0 4 0 4 0 1 237 
6 0 5 0 4 0 1 239 
2 0 7 0 4 0 1 239 
6 0 7 0 4 0 1 241 
1 0 4 0 8 0 1 241 
6 0 4 0 6 0 1 241 
9 0 6 0 10 0 1 241 
3 0 7 0 2 0 1 241 
0 0 0 0 0 0 1 278 
0 0 0 0 0 0 1 243 
9 1 0 0 0 0 3 246 245 244 
2 8 0 0 0 0 2 248 247 
3 7 0 0 0 0 2 248 247 
5 6 0 0 0 0 2 248 247 
2 2 0 0 0 0 2 250 249 
10 3 0 0 0 0 2 250 249 
7 4 0 0 0 0 2 252 251 
2 7 0 0 0 0 2 252 251 
5 5 0 0 0 0 1 253 
1 7 0 0 0 0 1 253 
0 0 0 0 0 0 1 278 
0 0 0 0 0 0 2 255 256 
3 0 0 0 1 0 2 264 257 
4 0 0 0 3 0 3 263 262 260 
9 0 0 0 10 0 1 258 
8 0 0 0 4 0 1 259 
10 0 0 0 2 0 2 262 261 
5 0 0 0 7 0 1 261 
10 0 0 0 4 0 1 265 
10 0 0 0 5 0 1 265 
10 0 0 0 10 0 1 265 
8 0 0 0 4 0 1 265 
0 0 0 0 0 0 1 278 
0 0 0 0 0 0 3 267 269 276 
2 0 0 0 0 1 1 268 
2 0 0 0 0 4 2 275 270 
8 0 0 0 0 2 2 273 272 
4 0 0 0 0 3 1 271 
8 0 0 0 0 6 1 274 
10 0 0 0 0 8 1 275 
5 0 0 0 0 4 1 274 
10 0 0 0 0 7 1 277 
9 0 0 0 0 8 1 277 
5 0 0 0 0 7 1 277 
0 0 0 0 0 0 1 278 
0 0 0 0 0 0 6 279 281 282 286 287 288 
1 0 0 0 0 1 1 280 
10 0 0 0 0 6 1 283 
4 0 0 0 0 5 1 283 
8 0 0 0 0 2 1 283 
2 0 0 0 0 6 1 284 
5 0 0 0 0 6 1 285 
10 0 0 0 0 7 1 289 
8 0 0 0 0 9 1 289 
6 0 0 0 0 4 1 289 
4 0 0 0 0 4 1 289 
0 0 0 0 0 0 1 290 
0 0 0 0 0 0 1 291 
2 0 1 0 0 0 2 295 292 
1 0 8 0 0 0 2 294 293 
5 0 6 0 0 0 2 298 296 
1 0 4 0 0 0 2 298 296 
9 0 7 0 0 0 2 300 297 
4 0 4 0 0 0 2 300 299 
6 0 5 0 0 0 1 298 
3 0 8 0 0 0 1 299 
6 0 4 0 0 0 1 301 
2 0 3 0 0 0 1 301 
0 0 0 0 0 0 0 
